rectOffsets = 
    [|0,0,3,3|0,0,3,3|0,0,3,4|0,0,4,3|0,0,3,5|0,0,5,3|0,0,3,6|0,0,6,3|0,0,3,7|0,0,7,3|0,0,3,8|0,0,8,3|0,0,3,9|0,0,9,3|0,0,3,10|0,0,10,3|0,0,3,11|0,0,11,3|0,0,3,16|0,0,16,3|0,0,3,17|0,0,17,3|0,0,3,21|0,0,21,3|0,0,3,23|0,0,23,3|0,0,4,3|0,0,3,4|0,0,4,4|0,0,4,4|0,0,4,5|0,0,5,4|0,0,4,8|0,0,8,4|0,0,4,13|0,0,13,4|0,0,4,23|0,0,23,4|0,0,5,6|0,0,6,5|0,0,5,9|0,0,9,5|0,0,5,13|0,0,13,5|];

shape = array1d(1..44, [{1}, {2}, {3}, {4}, {5}, {6}, {7}, {8}, {9}, {10},
    {11}, {12}, {13}, {14}, {15}, {16}, {17}, {18}, {19}, {20}, {21},
    {22}, {23}, {24}, {25}, {26}, {27}, {28}, {29}, {30}, {31}, {32},
    {33}, {34}, {35}, {36}, {37}, {38}, {39}, {40}, {41}, {42}, {43},
    {44}]);

validshapes = array1d(1..22, [{1,2}, {3,4}, {5,6}, {7,8}, {9,10}, {11,12}, {13,14},
    {15,16}, {17,18}, {19,20}, {21,22}, {23,24}, {25,26}, {27,28},
    {29,30}, {31,32}, {33,34}, {35,36}, {37,38}, {39,40}, {41,42},
    {43,44}]);

dx = array1d(1..22, [3, 3, 3, 3, 3, 3, 3, 3, 3, 3, 3, 3, 3, 4, 4, 4, 4, 4,
    4, 5, 5, 5]);

dy = array1d(1..22, [3, 4, 5, 6, 7, 8, 9, 10, 11, 16, 17, 21, 23, 3, 4, 5,
    8, 13, 23, 6, 9, 13]);

w = 28;

n = 22;

o = 44;

